Route #1: 0 46 27 13 57 15 5 45 0
Route #2: 0 48 37 20 36 59 21 0
Route #3: 0 29 54 14 53 7 8 0
Route #4: 0 34 52 19 35 26 17 0
Route #5: 0 40 16 49 23 43 33 51 0
Route #6: 0 3 44 24 50 25 32 0
Route #7: 0 12 39 58 10 11 0
Route #8: 0 38 31 55 18 9 0
Route #9: 0 4 30 28 2 0
Route #10: 0 6 1 56 41 42 22 47 0
Cost 897:
